(set-option :conjecture-filter-canonical true)
(set-option :conjecture-filter-model true)
(set-option :conjecture-gen true)
(set-option :sygus-inference true)
(set-option :conjecture-no-filter true)
(declare-fun a () (Set Int))
(declare-fun b () (Set Int))
(assert (distinct a b))
(check-sat)
